c colouring generated by benchmark framework
p edge 1356 110455
v 1 10
v 2 1
v 3 10
v 4 31
v 5 16
v 6 31
v 7 27
v 8 22
v 9 17
v 10 8
v 11 13
v 12 9
v 13 14
v 14 24
v 15 31
v 16 8
v 17 24
v 18 31
v 19 23
v 20 25
v 21 18
v 22 5
v 23 3
v 24 22
v 25 8
v 26 13
v 27 14
v 28 4
v 29 3
v 30 8
v 31 23
v 32 13
v 33 28
v 34 12
v 35 23
v 36 5
v 37 25
v 38 14
v 39 26
v 40 11
v 41 14
v 42 16
v 43 8
v 44 6
v 45 28
v 46 27
v 47 14
v 48 20
v 49 31
v 50 3
v 51 21
v 52 22
v 53 1
v 54 29
v 55 15
v 56 30
v 57 12
v 58 13
v 59 9
v 60 33
v 61 11
v 62 15
v 63 1
v 64 23
v 65 18
v 66 17
v 67 3
v 68 16
v 69 21
v 70 12
v 71 1
v 72 13
v 73 23
v 74 30
v 75 3
v 76 13
v 77 17
v 78 26
v 79 19
v 80 2
v 81 11
v 82 32
v 83 6
v 84 27
v 85 2
v 86 24
v 87 12
v 88 24
v 89 4
v 90 8
v 91 5
v 92 4
v 93 22
v 94 29
v 95 33
v 96 16
v 97 25
v 98 19
v 99 25
v 100 11
v 101 18
v 102 33
v 103 11
v 104 22
v 105 30
v 106 8
v 107 31
v 108 28
v 109 21
v 110 3
v 111 18
v 112 30
v 113 20
v 114 6
v 115 20
v 116 24
v 117 27
v 118 19
v 119 1
v 120 24
v 121 28
v 122 22
v 123 15
v 124 33
v 125 10
v 126 28
v 127 27
v 128 3
v 129 27
v 130 5
v 131 5
v 132 0
v 133 29
v 134 16
v 135 17
v 136 16
v 137 22
v 138 13
v 139 8
v 140 26
v 141 10
v 142 19
v 143 28
v 144 33
v 145 29
v 146 5
v 147 13
v 148 23
v 149 24
v 150 18
v 151 31
v 152 13
v 153 9
v 154 22
v 155 1
v 156 17
v 157 29
v 158 0
v 159 31
v 160 7
v 161 0
v 162 32
v 163 33
v 164 26
v 165 12
v 166 33
v 167 14
v 168 1
v 169 32
v 170 2
v 171 14
v 172 29
v 173 21
v 174 17
v 175 27
v 176 13
v 177 32
v 178 1
v 179 17
v 180 26
v 181 8
v 182 33
v 183 15
v 184 1
v 185 3
v 186 31
v 187 14
v 188 29
v 189 0
v 190 11
v 191 2
v 192 24
v 193 17
v 194 9
v 195 13
v 196 4
v 197 16
v 198 3
v 199 9
v 200 17
v 201 8
v 202 10
v 203 9
v 204 22
v 205 6
v 206 5
v 207 16
v 208 1
v 209 25
v 210 25
v 211 33
v 212 23
v 213 13
v 214 6
v 215 23
v 216 12
v 217 30
v 218 23
v 219 28
v 220 27
v 221 32
v 222 29
v 223 15
v 224 32
v 225 17
v 226 0
v 227 30
v 228 22
v 229 32
v 230 32
v 231 4
v 232 6
v 233 2
v 234 27
v 235 15
v 236 33
v 237 15
v 238 33
v 239 19
v 240 21
v 241 27
v 242 13
v 243 12
v 244 28
v 245 30
v 246 32
v 247 16
v 248 27
v 249 28
v 250 24
v 251 30
v 252 26
v 253 10
v 254 15
v 255 18
v 256 15
v 257 24
v 258 15
v 259 21
v 260 33
v 261 26
v 262 27
v 263 14
v 264 30
v 265 10
v 266 5
v 267 10
v 268 24
v 269 30
v 270 9
v 271 28
v 272 7
v 273 24
v 274 16
v 275 15
v 276 3
v 277 24
v 278 17
v 279 17
v 280 24
v 281 30
v 282 17
v 283 29
v 284 31
v 285 22
v 286 31
v 287 7
v 288 15
v 289 15
v 290 29
v 291 29
v 292 17
v 293 24
v 294 11
v 295 4
v 296 18
v 297 9
v 298 32
v 299 33
v 300 27
v 301 5
v 302 4
v 303 22
v 304 30
v 305 23
v 306 17
v 307 1
v 308 24
v 309 11
v 310 11
v 311 7
v 312 33
v 313 24
v 314 28
v 315 20
v 316 21
v 317 4
v 318 14
v 319 3
v 320 30
v 321 2
v 322 9
v 323 11
v 324 18
v 325 12
v 326 15
v 327 25
v 328 3
v 329 20
v 330 4
v 331 4
v 332 3
v 333 1
v 334 30
v 335 33
v 336 14
v 337 19
v 338 32
v 339 20
v 340 18
v 341 9
v 342 21
v 343 21
v 344 25
v 345 11
v 346 3
v 347 19
v 348 22
v 349 30
v 350 33
v 351 16
v 352 32
v 353 7
v 354 23
v 355 32
v 356 2
v 357 17
v 358 26
v 359 18
v 360 25
v 361 29
v 362 31
v 363 11
v 364 25
v 365 15
v 366 4
v 367 6
v 368 30
v 369 6
v 370 15
v 371 2
v 372 13
v 373 22
v 374 27
v 375 12
v 376 21
v 377 27
v 378 15
v 379 33
v 380 22
v 381 27
v 382 28
v 383 0
v 384 33
v 385 16
v 386 16
v 387 29
v 388 8
v 389 16
v 390 9
v 391 30
v 392 32
v 393 5
v 394 24
v 395 11
v 396 7
v 397 11
v 398 6
v 399 0
v 400 28
v 401 2
v 402 30
v 403 32
v 404 26
v 405 24
v 406 17
v 407 20
v 408 28
v 409 19
v 410 8
v 411 30
v 412 4
v 413 9
v 414 26
v 415 4
v 416 29
v 417 3
v 418 20
v 419 16
v 420 12
v 421 2
v 422 0
v 423 6
v 424 19
v 425 32
v 426 15
v 427 11
v 428 22
v 429 21
v 430 18
v 431 11
v 432 13
v 433 23
v 434 14
v 435 10
v 436 7
v 437 28
v 438 20
v 439 9
v 440 2
v 441 21
v 442 7
v 443 21
v 444 32
v 445 29
v 446 4
v 447 24
v 448 30
v 449 0
v 450 22
v 451 1
v 452 8
v 453 4
v 454 28
v 455 0
v 456 17
v 457 10
v 458 25
v 459 18
v 460 26
v 461 33
v 462 3
v 463 11
v 464 12
v 465 8
v 466 22
v 467 20
v 468 7
v 469 8
v 470 9
v 471 7
v 472 19
v 473 21
v 474 30
v 475 18
v 476 32
v 477 29
v 478 15
v 479 14
v 480 17
v 481 12
v 482 3
v 483 0
v 484 5
v 485 12
v 486 19
v 487 14
v 488 0
v 489 32
v 490 10
v 491 1
v 492 10
v 493 25
v 494 32
v 495 0
v 496 9
v 497 19
v 498 7
v 499 30
v 500 20
v 501 23
v 502 23
v 503 7
v 504 26
v 505 31
v 506 5
v 507 1
v 508 28
v 509 16
v 510 11
v 511 4
v 512 8
v 513 5
v 514 18
v 515 12
v 516 15
v 517 14
v 518 7
v 519 26
v 520 1
v 521 4
v 522 31
v 523 18
v 524 17
v 525 7
v 526 14
v 527 27
v 528 17
v 529 19
v 530 2
v 531 33
v 532 19
v 533 5
v 534 29
v 535 21
v 536 8
v 537 11
v 538 30
v 539 8
v 540 13
v 541 13
v 542 5
v 543 33
v 544 20
v 545 19
v 546 31
v 547 3
v 548 17
v 549 11
v 550 10
v 551 31
v 552 19
v 553 28
v 554 30
v 555 12
v 556 14
v 557 20
v 558 32
v 559 18
v 560 24
v 561 32
v 562 21
v 563 11
v 564 4
v 565 33
v 566 16
v 567 0
v 568 24
v 569 3
v 570 20
v 571 23
v 572 27
v 573 25
v 574 31
v 575 22
v 576 26
v 577 4
v 578 25
v 579 20
v 580 6
v 581 14
v 582 22
v 583 14
v 584 6
v 585 0
v 586 13
v 587 33
v 588 22
v 589 20
v 590 18
v 591 14
v 592 15
v 593 3
v 594 17
v 595 21
v 596 8
v 597 12
v 598 23
v 599 22
v 600 10
v 601 3
v 602 19
v 603 25
v 604 2
v 605 22
v 606 7
v 607 21
v 608 6
v 609 9
v 610 14
v 611 10
v 612 18
v 613 18
v 614 18
v 615 26
v 616 14
v 617 15
v 618 7
v 619 2
v 620 15
v 621 14
v 622 5
v 623 6
v 624 24
v 625 26
v 626 7
v 627 24
v 628 26
v 629 27
v 630 26
v 631 26
v 632 7
v 633 1
v 634 27
v 635 6
v 636 26
v 637 1
v 638 22
v 639 32
v 640 29
v 641 26
v 642 22
v 643 13
v 644 30
v 645 4
v 646 14
v 647 20
v 648 11
v 649 31
v 650 10
v 651 12
v 652 14
v 653 25
v 654 14
v 655 32
v 656 23
v 657 6
v 658 28
v 659 27
v 660 17
v 661 13
v 662 13
v 663 11
v 664 14
v 665 17
v 666 15
v 667 12
v 668 9
v 669 18
v 670 22
v 671 21
v 672 4
v 673 24
v 674 27
v 675 10
v 676 12
v 677 32
v 678 2
v 679 23
v 680 22
v 681 5
v 682 29
v 683 14
v 684 14
v 685 9
v 686 4
v 687 25
v 688 2
v 689 18
v 690 22
v 691 17
v 692 28
v 693 25
v 694 17
v 695 6
v 696 12
v 697 24
v 698 4
v 699 10
v 700 17
v 701 31
v 702 21
v 703 33
v 704 2
v 705 0
v 706 24
v 707 8
v 708 4
v 709 18
v 710 2
v 711 29
v 712 25
v 713 28
v 714 26
v 715 9
v 716 5
v 717 1
v 718 1
v 719 13
v 720 19
v 721 20
v 722 31
v 723 13
v 724 2
v 725 1
v 726 1
v 727 16
v 728 31
v 729 25
v 730 19
v 731 26
v 732 23
v 733 33
v 734 19
v 735 21
v 736 27
v 737 17
v 738 5
v 739 9
v 740 31
v 741 0
v 742 12
v 743 30
v 744 6
v 745 16
v 746 12
v 747 31
v 748 23
v 749 32
v 750 32
v 751 29
v 752 17
v 753 30
v 754 8
v 755 3
v 756 10
v 757 26
v 758 28
v 759 27
v 760 22
v 761 1
v 762 1
v 763 7
v 764 16
v 765 18
v 766 31
v 767 13
v 768 23
v 769 23
v 770 21
v 771 16
v 772 19
v 773 7
v 774 19
v 775 8
v 776 19
v 777 14
v 778 19
v 779 13
v 780 12
v 781 22
v 782 13
v 783 0
v 784 6
v 785 1
v 786 17
v 787 1
v 788 7
v 789 27
v 790 21
v 791 33
v 792 14
v 793 19
v 794 15
v 795 9
v 796 13
v 797 27
v 798 24
v 799 30
v 800 31
v 801 3
v 802 25
v 803 23
v 804 1
v 805 22
v 806 9
v 807 23
v 808 9
v 809 12
v 810 3
v 811 25
v 812 2
v 813 21
v 814 0
v 815 17
v 816 27
v 817 27
v 818 26
v 819 33
v 820 23
v 821 29
v 822 10
v 823 24
v 824 0
v 825 9
v 826 0
v 827 23
v 828 21
v 829 20
v 830 10
v 831 27
v 832 15
v 833 16
v 834 3
v 835 20
v 836 10
v 837 23
v 838 3
v 839 6
v 840 2
v 841 13
v 842 31
v 843 19
v 844 8
v 845 2
v 846 21
v 847 30
v 848 6
v 849 21
v 850 1
v 851 2
v 852 0
v 853 15
v 854 26
v 855 17
v 856 24
v 857 17
v 858 3
v 859 13
v 860 0
v 861 31
v 862 30
v 863 33
v 864 5
v 865 28
v 866 29
v 867 26
v 868 1
v 869 13
v 870 28
v 871 2
v 872 18
v 873 8
v 874 25
v 875 22
v 876 1
v 877 15
v 878 19
v 879 18
v 880 16
v 881 26
v 882 21
v 883 25
v 884 16
v 885 26
v 886 5
v 887 10
v 888 6
v 889 1
v 890 8
v 891 12
v 892 14
v 893 25
v 894 22
v 895 5
v 896 10
v 897 12
v 898 2
v 899 19
v 900 15
v 901 24
v 902 11
v 903 0
v 904 33
v 905 21
v 906 12
v 907 29
v 908 6
v 909 31
v 910 7
v 911 31
v 912 10
v 913 11
v 914 8
v 915 7
v 916 28
v 917 25
v 918 5
v 919 28
v 920 0
v 921 10
v 922 28
v 923 31
v 924 8
v 925 9
v 926 18
v 927 10
v 928 20
v 929 27
v 930 14
v 931 15
v 932 25
v 933 26
v 934 21
v 935 31
v 936 21
v 937 10
v 938 3
v 939 14
v 940 2
v 941 0
v 942 7
v 943 31
v 944 31
v 945 22
v 946 12
v 947 23
v 948 29
v 949 27
v 950 29
v 951 7
v 952 13
v 953 0
v 954 14
v 955 12
v 956 23
v 957 30
v 958 27
v 959 29
v 960 21
v 961 26
v 962 6
v 963 6
v 964 22
v 965 13
v 966 30
v 967 5
v 968 32
v 969 11
v 970 24
v 971 7
v 972 24
v 973 8
v 974 8
v 975 28
v 976 7
v 977 24
v 978 18
v 979 28
v 980 8
v 981 24
v 982 26
v 983 11
v 984 15
v 985 7
v 986 32
v 987 25
v 988 33
v 989 6
v 990 20
v 991 31
v 992 11
v 993 5
v 994 31
v 995 23
v 996 5
v 997 29
v 998 18
v 999 28
v 1000 9
v 1001 27
v 1002 27
v 1003 12
v 1004 7
v 1005 24
v 1006 31
v 1007 8
v 1008 16
v 1009 16
v 1010 9
v 1011 10
v 1012 4
v 1013 5
v 1014 23
v 1015 26
v 1016 7
v 1017 9
v 1018 30
v 1019 31
v 1020 3
v 1021 29
v 1022 13
v 1023 10
v 1024 33
v 1025 10
v 1026 18
v 1027 3
v 1028 8
v 1029 7
v 1030 29
v 1031 29
v 1032 33
v 1033 6
v 1034 18
v 1035 1
v 1036 6
v 1037 13
v 1038 12
v 1039 0
v 1040 26
v 1041 19
v 1042 2
v 1043 13
v 1044 1
v 1045 25
v 1046 27
v 1047 5
v 1048 26
v 1049 33
v 1050 23
v 1051 0
v 1052 22
v 1053 8
v 1054 4
v 1055 25
v 1056 33
v 1057 33
v 1058 6
v 1059 32
v 1060 19
v 1061 2
v 1062 26
v 1063 13
v 1064 33
v 1065 9
v 1066 22
v 1067 1
v 1068 4
v 1069 1
v 1070 15
v 1071 11
v 1072 25
v 1073 19
v 1074 16
v 1075 16
v 1076 1
v 1077 14
v 1078 12
v 1079 14
v 1080 16
v 1081 22
v 1082 2
v 1083 3
v 1084 4
v 1085 33
v 1086 20
v 1087 25
v 1088 2
v 1089 11
v 1090 20
v 1091 8
v 1092 8
v 1093 26
v 1094 18
v 1095 8
v 1096 32
v 1097 22
v 1098 20
v 1099 5
v 1100 2
v 1101 1
v 1102 12
v 1103 8
v 1104 33
v 1105 11
v 1106 10
v 1107 13
v 1108 28
v 1109 28
v 1110 5
v 1111 14
v 1112 30
v 1113 29
v 1114 12
v 1115 29
v 1116 17
v 1117 9
v 1118 31
v 1119 13
v 1120 1
v 1121 9
v 1122 20
v 1123 9
v 1124 2
v 1125 0
v 1126 15
v 1127 30
v 1128 7
v 1129 29
v 1130 32
v 1131 20
v 1132 27
v 1133 19
v 1134 16
v 1135 1
v 1136 0
v 1137 7
v 1138 10
v 1139 9
v 1140 1
v 1141 2
v 1142 3
v 1143 26
v 1144 10
v 1145 22
v 1146 17
v 1147 15
v 1148 6
v 1149 9
v 1150 22
v 1151 17
v 1152 14
v 1153 16
v 1154 7
v 1155 5
v 1156 22
v 1157 29
v 1158 9
v 1159 22
v 1160 18
v 1161 18
v 1162 19
v 1163 25
v 1164 7
v 1165 18
v 1166 16
v 1167 10
v 1168 16
v 1169 12
v 1170 33
v 1171 30
v 1172 2
v 1173 28
v 1174 10
v 1175 23
v 1176 32
v 1177 32
v 1178 3
v 1179 8
v 1180 24
v 1181 0
v 1182 33
v 1183 5
v 1184 12
v 1185 5
v 1186 7
v 1187 18
v 1188 21
v 1189 1
v 1190 25
v 1191 19
v 1192 21
v 1193 20
v 1194 21
v 1195 19
v 1196 14
v 1197 2
v 1198 13
v 1199 27
v 1200 11
v 1201 28
v 1202 21
v 1203 20
v 1204 21
v 1205 6
v 1206 26
v 1207 26
v 1208 20
v 1209 12
v 1210 11
v 1211 20
v 1212 4
v 1213 0
v 1214 5
v 1215 4
v 1216 13
v 1217 2
v 1218 3
v 1219 5
v 1220 25
v 1221 25
v 1222 32
v 1223 4
v 1224 29
v 1225 11
v 1226 13
v 1227 23
v 1228 15
v 1229 26
v 1230 17
v 1231 18
v 1232 0
v 1233 12
v 1234 14
v 1235 6
v 1236 21
v 1237 19
v 1238 11
v 1239 4
v 1240 6
v 1241 17
v 1242 2
v 1243 30
v 1244 15
v 1245 31
v 1246 15
v 1247 1
v 1248 28
v 1249 8
v 1250 18
v 1251 15
v 1252 33
v 1253 7
v 1254 29
v 1255 20
v 1256 23
v 1257 7
v 1258 7
v 1259 11
v 1260 30
v 1261 0
v 1262 23
v 1263 18
v 1264 19
v 1265 9
v 1266 24
v 1267 14
v 1268 24
v 1269 16
v 1270 29
v 1271 20
v 1272 16
v 1273 3
v 1274 30
v 1275 16
v 1276 0
v 1277 1
v 1278 16
v 1279 4
v 1280 25
v 1281 23
v 1282 14
v 1283 28
v 1284 14
v 1285 27
v 1286 1
v 1287 19
v 1288 11
v 1289 19
v 1290 30
v 1291 27
v 1292 6
v 1293 25
v 1294 13
v 1295 23
v 1296 4
v 1297 33
v 1298 20
v 1299 23
v 1300 16
v 1301 0
v 1302 26
v 1303 16
v 1304 6
v 1305 2
v 1306 26
v 1307 28
v 1308 6
v 1309 30
v 1310 33
v 1311 10
v 1312 4
v 1313 32
v 1314 17
v 1315 11
v 1316 0
v 1317 29
v 1318 19
v 1319 28
v 1320 9
v 1321 28
v 1322 6
v 1323 20
v 1324 2
v 1325 33
v 1326 8
v 1327 29
v 1328 29
v 1329 10
v 1330 18
v 1331 31
v 1332 11
v 1333 8
v 1334 31
v 1335 9
v 1336 1
v 1337 8
v 1338 13
v 1339 8
v 1340 17
v 1341 21
v 1342 0
v 1343 12
v 1344 11
v 1345 8
v 1346 11
v 1347 18
v 1348 22
v 1349 23
v 1350 24
v 1351 9
v 1352 10
v 1353 8
v 1354 1
v 1355 0
v 1356 8
